0
Node Left Objective IInf Best_Integer Best_Bound ItCnt Gap
0+ 0 nan nan -1.64253e+08 -1.64319e+08 nan 0.04%
CPXPARAM_MIP_Cuts_MCFCut 0
1
Node Left Objective IInf Best_Integer Best_Bound ItCnt Gap
0+ 0 nan nan -1.85029e+08 -1.85085e+08 nan 0.03%
CPXPARAM_MIP_Cuts_MCFCut 0
2
Node Left Objective IInf Best_Integer Best_Bound ItCnt Gap
0+ 0 nan nan -1.56500e+08 -1.56540e+08 nan 0.03%
CPXPARAM_MIP_Cuts_MCFCut 0
3
Node Left Objective IInf Best_Integer Best_Bound ItCnt Gap
0+ 0 nan nan -1.58425e+08 -1.58454e+08 nan 0.02%
CPXPARAM_MIP_Cuts_MCFCut 0
4
Node Left Objective IInf Best_Integer Best_Bound ItCnt Gap
0+ 0 nan nan -1.73365e+08 -1.73414e+08 nan 0.03%
CPXPARAM_MIP_Cuts_MCFCut 0
5
Node Left Objective IInf Best_Integer Best_Bound ItCnt Gap
0+ 0 nan nan -1.78557e+08 -1.78612e+08 nan 0.03%
CPXPARAM_MIP_Cuts_MCFCut 0
6
Node Left Objective IInf Best_Integer Best_Bound ItCnt Gap
0+ 0 nan nan -1.60114e+08 -1.60139e+08 nan 0.02%
CPXPARAM_MIP_Cuts_MCFCut 0
7
Node Left Objective IInf Best_Integer Best_Bound ItCnt Gap
0+ 0 nan nan -1.65377e+08 -1.65400e+08 nan 0.01%
CPXPARAM_MIP_Cuts_MCFCut 0
8
Node Left Objective IInf Best_Integer Best_Bound ItCnt Gap
0+ 0 nan nan -2.02515e+08 -2.02574e+08 nan 0.03%
CPXPARAM_MIP_Cuts_MCFCut 0
9
Node Left Objective IInf Best_Integer Best_Bound ItCnt Gap
0+ 0 nan nan -2.22099e+08 -2.22143e+08 nan 0.02%
CPXPARAM_MIP_Cuts_MCFCut 0
10
Node Left Objective IInf Best_Integer Best_Bound ItCnt Gap
0+ 0 nan nan -2.03829e+08 -2.03888e+08 nan 0.03%
CPXPARAM_MIP_Cuts_MCFCut 0
11
Node Left Objective IInf Best_Integer Best_Bound ItCnt Gap
0+ 0 nan nan -2.09277e+08 -2.09319e+08 nan 0.02%
CPXPARAM_MIP_Cuts_MCFCut 0
12
Node Left Objective IInf Best_Integer Best_Bound ItCnt Gap
0+ 0 nan nan -1.83494e+08 -1.83549e+08 nan 0.03%
CPXPARAM_MIP_Cuts_MCFCut 0
13
Node Left Objective IInf Best_Integer Best_Bound ItCnt Gap
0+ 0 nan nan -1.87980e+08 -1.88030e+08 nan 0.03%
CPXPARAM_MIP_Cuts_MCFCut 0
14
Node Left Objective IInf Best_Integer Best_Bound ItCnt Gap
0+ 0 nan nan -1.62852e+08 -1.62894e+08 nan 0.03%
CPXPARAM_MIP_Cuts_MCFCut 0
15
Node Left Objective IInf Best_Integer Best_Bound ItCnt Gap
0+ 0 nan nan -1.83669e+08 -1.83706e+08 nan 0.02%
CPXPARAM_MIP_Cuts_MCFCut 0
16
Node Left Objective IInf Best_Integer Best_Bound ItCnt Gap
0+ 0 nan nan -1.87927e+08 -1.87984e+08 nan 0.03%
CPXPARAM_MIP_Cuts_MCFCut 0
17
Node Left Objective IInf Best_Integer Best_Bound ItCnt Gap
0+ 0 nan nan -2.12473e+08 -2.12511e+08 nan 0.02%
CPXPARAM_MIP_Cuts_MCFCut 0
18
Node Left Objective IInf Best_Integer Best_Bound ItCnt Gap
0+ 0 nan nan -1.82209e+08 -1.82240e+08 nan 0.02%
CPXPARAM_MIP_Cuts_MCFCut 0
19
Node Left Objective IInf Best_Integer Best_Bound ItCnt Gap
0+ 0 nan nan -1.84341e+08 -1.84360e+08 nan 0.01%
CPXPARAM_MIP_Cuts_MCFCut 0
20
Node Left Objective IInf Best_Integer Best_Bound ItCnt Gap
0+ 0 nan nan -1.25504e+08 -1.25556e+08 nan 0.04%
CPXPARAM_MIP_Cuts_MCFCut 0
21
Node Left Objective IInf Best_Integer Best_Bound ItCnt Gap
0+ 0 nan nan -1.21531e+08 -1.21584e+08 nan 0.04%
CPXPARAM_MIP_Cuts_MCFCut 0
22
Node Left Objective IInf Best_Integer Best_Bound ItCnt Gap
0+ 0 nan nan -1.17829e+08 -1.17851e+08 nan 0.02%
CPXPARAM_MIP_Cuts_MCFCut 0
23
Node Left Objective IInf Best_Integer Best_Bound ItCnt Gap
0+ 0 nan nan -1.16778e+08 -1.16796e+08 nan 0.02%
CPXPARAM_MIP_Cuts_MCFCut 0
24
Node Left Objective IInf Best_Integer Best_Bound ItCnt Gap
0+ 0 nan nan -1.44712e+08 -1.44766e+08 nan 0.04%
CPXPARAM_MIP_Cuts_MCFCut 0
25
Node Left Objective IInf Best_Integer Best_Bound ItCnt Gap
0+ 0 nan nan -1.51814e+08 -1.51859e+08 nan 0.03%
CPXPARAM_MIP_Cuts_MCFCut 0
26
Node Left Objective IInf Best_Integer Best_Bound ItCnt Gap
0+ 0 nan nan -1.39664e+08 -1.39681e+08 nan 0.01%
CPXPARAM_MIP_Cuts_MCFCut 0
27
Node Left Objective IInf Best_Integer Best_Bound ItCnt Gap
0+ 0 nan nan -1.34918e+08 -1.34936e+08 nan 0.01%
CPXPARAM_MIP_Cuts_MCFCut 0
28
Node Left Objective IInf Best_Integer Best_Bound ItCnt Gap
0+ 0 nan nan -2.31158e+08 -2.31201e+08 nan 0.02%
CPXPARAM_MIP_Cuts_MCFCut 0
29
Node Left Objective IInf Best_Integer Best_Bound ItCnt Gap
0+ 0 nan nan -2.20538e+08 -2.20585e+08 nan 0.02%
CPXPARAM_MIP_Cuts_MCFCut 0
30
CPXPARAM_MIP_Cuts_MCFCut 0
31
CPXPARAM_MIP_Cuts_MCFCut 0
32
Node Left Objective IInf Best_Integer Best_Bound ItCnt Gap
0+ 0 nan nan -1.45065e+08 -1.45131e+08 nan 0.05%
CPXPARAM_MIP_Cuts_MCFCut 0
33
Node Left Objective IInf Best_Integer Best_Bound ItCnt Gap
0+ 0 nan nan -1.60888e+08 -1.60948e+08 nan 0.04%
CPXPARAM_MIP_Cuts_MCFCut 0
34
Node Left Objective IInf Best_Integer Best_Bound ItCnt Gap
0+ 0 nan nan -1.40220e+08 -1.40251e+08 nan 0.02%
CPXPARAM_MIP_Cuts_MCFCut 0
35
CPXPARAM_MIP_Cuts_MCFCut 0
36
Node Left Objective IInf Best_Integer Best_Bound ItCnt Gap
0+ 0 nan nan -1.87412e+08 -1.87473e+08 nan 0.03%
CPXPARAM_MIP_Cuts_MCFCut 0
37
Node Left Objective IInf Best_Integer Best_Bound ItCnt Gap
0+ 0 nan nan -1.91736e+08 -1.91788e+08 nan 0.03%
CPXPARAM_MIP_Cuts_MCFCut 0
38
Node Left Objective IInf Best_Integer Best_Bound ItCnt Gap
0+ 0 nan nan -1.63091e+08 -1.63111e+08 nan 0.01%
CPXPARAM_MIP_Cuts_MCFCut 0
39
Node Left Objective IInf Best_Integer Best_Bound ItCnt Gap
0+ 0 nan nan -1.73154e+08 -1.73171e+08 nan 0.01%
CPXPARAM_MIP_Cuts_MCFCut 0
